(set-logic QF_NRA)
(declare-fun x () Real)
(declare-fun y () Real)
(declare-fun z () Real)
(assert (and (< (- (+ (+ (* x x) (* y y)) (* z z)) 1) 0) (< (- (+ (* x x) (* (- (+ y z) 2) (- (+ y z) 2))) 1) 0)))
(eliminate-quantifiers (exists z x y))
(exit)
